unsat
(define-fun f ((x0 (BitVec 64)) (x1 (BitVec 64))) (BitVec 64) (bvadd #b0000000000000000000000000000000000000000000000000000000000010111 (bvudiv x0 #b0000000000000000000000000000000000000000000000000000000000100011)))
(define-fun f ((x0 (BitVec 64)) (x1 (BitVec 64))) (BitVec 64) (bvadd #b0000000000000000000000000000000000000000000000000000000000010111 (bvudiv x0 #b0000000000000000000000000000000000000000000000000000000000100011)))
int-arith28.sl running time : 2 m 30.033732816 s
times : 150.033732816
